(set-info :Origin "This instance was generated by: BanditFuzz-- an RL fuzzer for SMT solvers" )
(set-info :Author "Joe Scott, Fed Mora, Vijay Ganesh" )
(set-info :Contact "Joe Scott, joseph.scott@uwaterloo.ca")
(set-logic QF_BV)
(declare-const bool_0 Bool)
(declare-const bool_1 Bool)
(declare-const bool_2 Bool)
(declare-const bool_3 Bool)
(declare-const bool_4 Bool)
(declare-const bv_0 (_ BitVec 32))
(declare-const bv_1 (_ BitVec 32))
(declare-const bv_2 (_ BitVec 32))
(declare-const bv_3 (_ BitVec 32))
(declare-const bv_4 (_ BitVec 32))
(assert (and (bvsgt (bvxor bv_4 #x1d07f282 ) (bvmul bv_2 bv_1)) (bvsge (bvxnor #x671c45e5  bv_3) (bvmul #x349f0a8a  bv_3))))
(assert (and (bvuge (bvshl bv_2 #x3cd545d6 ) (bvnand #x9a04be0b  #xd4fd31f0 )) (=> (and false bool_3) (bvslt #x567414c0  #x0f06a1e5 ))))
(assert (bvugt (bvurem (bvxor #xb732947d  bv_1) (bvurem #x89ff16c9  #xe5f0b330 )) (bvnand (bvashr bv_0 bv_3) (bvsdiv #xf04767c3  #x611cfef2 ))))
(assert (and (bvule (bvadd #x5d43b9f2  bv_3) (bvxnor #xd9d75d12  #xd0eb9b66 )) (or (bvuge bv_1 #x6f766ea5 ) (bvugt #x62eafc24  #xa71ae303 ))))
(assert (not (bvsge (bvashr bv_1 #xceb90d88 ) (bvxnor #x46bfda17  bv_3))))
(check-sat)
(exit)
